p td 100 89
0 63
1 93
2 44
3 21
4 25
4 52
4 60
4 71
5 19
5 63
6 37
6 66
7 32
9 86
10 19
10 44
10 64
11 84
12 18
12 76
13 76
15 20
15 41
15 89
16 73
18 82
20 45
20 47
20 71
20 77
23 63
23 90
23 99
24 62
24 91
24 94
25 55
26 94
27 71
29 52
29 63
30 84
33 74
33 78
34 66
35 40
35 49
35 60
36 38
37 93
38 48
38 79
40 95
41 87
42 46
42 89
42 92
43 71
43 86
44 51
46 48
46 52
46 77
47 90
48 65
50 71
51 91
56 67
56 89
56 99
57 69
60 89
61 68
61 72
61 88
61 92
64 78
64 87
66 72
66 89
66 95
67 80
68 95
71 78
71 79
71 95
75 84
76 96
85 92
